27	3

10	10	10	

0	0	0	0	3	2	3	4	
2	3	5	2	2	6	7	
4	5	4	3	2	5	7	
4	5	2	2	3	5	6	8	
1	4	1	4	2	11	12	
2	5	5	4	2	11	12	
3	3	5	2	2	9	10	
2	2	4	4	2	10	11	
2	3	2	2	2	13	14	
3	3	2	4	1	15	
6	3	3	2	1	13	
5	4	1	4	2	13	16	
1	1	4	4	1	17	
5	2	2	2	1	18	
1	5	5	4	2	17	19	
3	1	5	4	2	18	20	
2	4	5	4	2	22	24	
1	3	2	3	1	22	
2	5	3	3	2	21	23	
4	2	4	6	1	22	
4	1	6	2	1	25	
4	3	2	1	1	26	
2	1	0	4	1	25	
1	2	2	1	1	25	
5	0	1	3	1	27	
1	2	2	2	1	27	
0	0	0	0	0	
